<number of tasks>
50

<cycle time>
1000

<order strength>
0.198


<task times>
1 40
2 213
3 115
4 305
5 176
6 206
7 43
8 135
9 167
10 123
11 262
12 61
13 128
14 142
15 292
16 78
17 211
18 199
19 87
20 72
21 167
22 203
23 88
24 187
25 553
26 224
27 167
28 46
29 211
30 192
31 556
32 168
33 31
34 98
35 54
36 230
37 359
38 518
39 29
40 246
41 90
42 144
43 75
44 507
45 269
46 220
47 164
48 214
49 51
50 555

<precedence relations>
1,20
2,21
2,22
3,7
3,11
5,9
6,8
6,10
7,32
7,40
8,14
8,16
8,17
9,12
9,45
10,13
11,15
11,33
13,20
13,21
14,22
14,23
14,31
15,24
16,18
16,19
16,30
17,25
18,27
19,26
21,30
21,49
22,28
22,29
23,32
25,31
25,33
26,42
26,48
28,35
29,38
29,48
31,37
32,34
33,36
33,39
34,39
34,41
34,42
34,44
36,40
37,43
41,46
42,45
42,50
43,47
43,48
43,49

<end>
